0 2093
1 2093
2 1942
3 1889
4 1889
5 1799
6 1799
7 1750
8 1744
9 1616
10 1616
11 1616
12 1610
13 1610
14 1610
15 1581
16 1556
17 1526
18 1458
19 1458
20 1458
21 1437
22 1437
23 1437
24 1435
25 1411
26 1385
27 1348
28 1348
29 1348
30 1348
31 1304
32 1304
33 1304
34 1298
35 1281
36 1281
37 1231
38 1231
39 1228
40 1228
41 1211
42 1211
43 1211
44 1208
45 1208
46 1208
47 1208
48 1203
49 1190
50 1190
51 1190
52 1190
53 1190
54 1190
55 1190
56 1190
57 1190
58 1155
59 1155
60 1155
61 1155
62 1155
63 1155
64 1147
65 1147
66 1147
67 1147
68 1147
69 1147
70 1147
71 1147
72 1147
73 1147
74 1147
75 1147
76 1147
77 1147
78 1147
79 1147
80 1134
81 1134
82 1134
83 1066
84 1066
85 1066
86 1066
87 1066
88 1066
89 1066
90 1066
91 1066
92 1066
93 1045
94 1045
95 1045
96 1045
97 1045
98 1045
99 1045
100 1045
101 1045
102 1045
103 1045
104 1045
105 1045
106 1045
107 1045
108 1045
109 1045
110 1045
111 1045
112 1045
113 1045
114 1045
115 1009
116 1009
117 1009
118 1009
119 1009
120 1009
121 1009
122 1009
123 1009
124 1009
125 1009
126 1009
127 1009
128 1009
129 1009
130 1009
131 1009
132 1009
133 1009
134 1009
135 1009
136 1009
137 1009
138 1009
139 1009
140 1009
141 1009
142 1009
143 1009
144 1009
145 1009
146 1009
147 1009
148 1009
149 1009
150 1009
151 1007
152 1007
153 1007
154 974
155 974
156 974
157 974
158 974
159 974
160 974
161 974
162 972
163 972
164 972
165 972
166 972
167 972
168 972
169 972
170 972
171 972
172 972
173 972
174 972
175 972
176 972
177 972
178 972
179 964
180 964
181 964
182 964
183 964
184 964
185 964
186 964
187 964
188 964
189 964
190 964
191 964
192 964
193 964
194 949
195 949
196 949
197 949
198 949
199 939
200 939
201 939
202 939
203 939
204 939
205 939
206 939
207 939
208 939
209 939
210 939
211 939
212 939
213 939
214 939
215 939
216 939
217 939
218 939
219 939
220 939
221 939
222 939
223 939
224 939
225 939
226 892
227 892
228 892
229 892
230 892
231 892
232 892
233 892
234 892
235 892
236 892
237 889
238 887
239 887
240 887
241 887
242 876
243 876
244 876
245 876
246 871
247 871
248 871
249 871
250 871
251 871
252 871
253 871
254 871
255 871
256 871
257 871
258 871
259 871
260 835
261 835
262 835
263 835
264 835
265 835
266 835
267 835
268 835
269 835
270 823
271 823
272 823
273 823
274 823
275 823
276 823
277 823
278 823
279 823
280 823
281 819
282 819
283 819
284 819
285 819
286 819
287 819
288 819
289 819
290 819
291 819
292 819
293 785
294 785
295 785
296 785
297 785
298 785
299 785
300 785
301 785
302 785
303 785
304 785
305 785
306 785
307 785
308 785
309 785
310 785
311 785
312 785
313 785
314 785
315 785
316 785
317 785
318 785
319 785
320 785
321 785
322 785
323 785
324 785
325 785
326 785
327 785
328 785
329 785
330 785
331 785
332 785
333 785
334 785
335 785
336 785
337 785
338 785
339 785
340 785
341 785
342 785
343 785
344 785
345 785
346 785
347 785
348 785
349 785
350 785
351 785
352 785
353 785
354 785
355 785
356 785
357 785
358 785
359 784
360 784
361 784
362 784
363 784
364 784
365 784
366 784
367 784
368 784
369 784
370 784
371 784
372 784
373 784
374 784
375 784
376 784
377 784
378 784
379 784
380 784
381 784
382 784
383 784
384 784
385 784
386 784
387 784
388 784
389 784
390 784
391 784
392 784
393 784
394 784
395 784
396 784
397 784
398 784
399 784
400 784
401 784
402 784
403 784
404 784
405 784
406 784
407 784
408 784
409 784
410 784
411 784
412 784
413 784
414 784
415 784
416 784
417 784
418 784
419 784
420 784
421 784
422 784
423 784
424 784
425 784
426 784
427 784
428 784
429 784
430 784
431 784
432 784
433 784
434 784
435 784
436 784
437 784
438 784
439 784
440 784
441 784
442 784
443 784
444 784
445 784
446 784
447 784
448 784
449 784
450 784
451 784
452 784
453 784
454 784
455 784
456 784
457 784
458 784
459 784
460 784
461 784
462 784
463 784
464 784
465 784
466 784
467 784
468 784
469 784
470 784
471 784
472 784
473 784
474 784
475 784
476 784
477 784
478 784
479 784
480 784
481 784
482 784
483 784
484 784
485 784
486 784
487 784
488 784
489 784
490 784
491 784
492 784
493 784
494 784
495 784
496 784
497 784
498 784
499 784
500 784
501 784
502 784
503 784
504 784
505 784
506 784
507 784
508 784
509 784
510 784
511 784
512 784
513 784
514 784
515 784
516 784
517 784
518 784
519 784
520 784
521 784
522 784
523 784
524 784
525 784
526 784
527 784
528 784
529 784
530 784
531 784
532 784
533 784
534 784
535 784
536 784
537 784
538 784
539 784
540 784
541 784
542 784
543 784
544 784
545 784
546 784
547 784
548 784
549 784
550 784
551 784
552 784
553 784
554 784
555 784
556 784
557 784
558 784
559 784
560 784
561 784
562 784
563 784
564 784
565 784
566 784
567 784
568 784
569 784
570 784
571 784
572 784
573 784
574 784
575 784
576 784
577 784
578 784
579 784
580 784
581 784
582 784
583 784
584 784
585 784
586 784
587 784
588 784
589 784
590 784
591 784
592 784
593 784
594 784
595 784
596 784
597 784
598 784
599 784
600 784
601 784
602 784
603 784
604 784
605 784
606 784
607 784
608 784
609 784
610 784
611 784
612 784
613 784
614 784
615 784
616 784
617 784
618 784
619 784
620 784
621 784
622 784
623 784
624 784
625 784
626 784
627 784
628 784
629 784
630 784
631 784
632 784
633 784
634 784
635 784
636 784
637 784
638 784
639 784
640 784
641 784
642 784
643 784
644 784
645 784
646 784
647 784
648 784
649 784
650 784
651 784
652 784
653 784
654 784
655 784
656 784
657 784
658 784
659 784
660 784
661 784
662 784
663 784
664 784
665 784
666 784
667 784
668 784
669 784
670 784
671 784
672 784
673 784
674 784
675 784
676 784
677 784
678 784
679 784
680 784
681 784
682 784
683 784
684 784
685 784
686 784
687 784
688 784
689 784
690 784
691 784
692 784
693 784
694 784
695 784
696 784
697 784
698 784
699 784
700 784
701 784
702 784
703 784
704 784
705 784
706 784
707 784
708 784
709 784
710 784
711 784
712 784
713 784
714 784
715 784
716 784
717 784
718 784
719 784
720 784
721 784
722 784
723 784
724 784
725 784
726 784
727 784
728 784
729 784
730 784
731 784
732 784
733 784
734 784
735 784
736 784
737 784
738 784
739 784
740 784
741 784
742 784
743 784
744 784
745 784
746 784
747 784
748 784
749 784
750 784
751 784
752 784
753 784
754 784
755 784
756 784
757 784
758 784
759 784
760 784
761 784
762 784
763 784
764 784
765 784
766 784
767 784
768 784
769 784
770 784
771 784
772 784
773 784
774 784
775 784
776 784
777 784
778 784
779 784
780 784
781 784
782 784
783 784
784 784
785 784
786 784
787 784
788 784
789 784
790 784
791 784
792 784
793 784
794 784
795 784
796 784
797 784
798 784
799 784
800 784
801 784
802 784
803 784
804 784
805 784
806 784
807 784
808 784
809 784
810 784
811 784
812 784
813 784
814 784
815 784
816 784
817 784
818 784
819 784
820 784
821 784
822 784
823 784
824 784
825 784
826 784
827 784
828 784
829 784
830 784
831 784
832 784
833 784
834 784
835 784
836 784
837 784
838 784
839 784
840 784
841 784
842 784
843 784
844 784
845 784
846 784
847 784
848 784
849 784
850 784
851 784
852 784
853 784
854 784
855 784
856 784
857 784
858 784
859 784
860 784
861 784
862 784
863 784
864 784
865 784
866 784
867 784
868 784
869 784
870 784
871 784
872 784
873 784
874 784
875 784
876 784
877 784
878 784
879 784
880 784
881 784
882 784
883 784
884 784
885 784
886 784
887 784
888 784
889 784
890 784
891 784
892 784
893 784
894 784
895 784
896 784
897 784
898 784
899 784
900 784
901 784
902 784
903 784
904 784
905 784
906 784
907 784
908 784
909 784
910 784
911 784
912 784
913 784
914 784
915 784
916 784
917 784
918 784
919 784
920 784
921 784
922 784
923 784
924 784
925 784
926 784
927 784
928 784
929 784
930 784
931 784
932 784
933 784
934 784
935 784
936 784
937 784
938 784
939 784
940 784
941 784
942 784
943 784
944 784
945 784
946 784
947 784
948 784
949 784
950 784
951 784
952 784
953 784
954 784
955 784
956 784
957 784
958 784
959 784
960 784
961 784
962 784
963 784
964 784
965 784
966 784
967 784
968 784
969 784
970 784
971 784
972 784
973 784
974 784
975 784
976 784
977 784
978 784
979 784
980 784
981 784
982 784
983 784
984 784
985 784
986 784
987 784
988 784
989 784
990 784
991 784
992 784
993 784
994 784
995 784
996 784
997 784
998 784
999 784
Best: [[15,25,28],
       [8,22,32,20,18,14,27],
       [21,6,26,11,16,10,23,30],
       [31,17,2,13],
       [7,4,3,24,29,5,12,9,19]], fitness: 784
